\ LP format - for model browsing. Use MPS format to capture full model detail.
Maximize
obj:   x[1] + x[28] + x[37] + x[40] + x[55] + x[136] + x[145] + x[148] + x[163]
   + x[172] + x[181] + x[184] + x[199] + x[352] + x[2] + x[29] + x[43]
   + x[46] + x[58] + x[151] + x[154] + x[166] + x[187] + x[190] + x[202]
   + x[208] + x[244] + x[355] + x[3] + x[30] + x[49] + x[52] + x[61]
   + x[157] + x[160] + x[169] + x[193] + x[196] + x[205] + x[280] + x[316]
   + x[358] + x[4] + x[31] + x[44] + x[50] + x[56] + x[139] + x[175]
   + x[223] + x[229] + x[235] + x[259] + x[265] + x[271] + x[361] + x[5]
   + x[32] + x[38] + x[53] + x[59] + x[211] + x[217] + x[232] + x[238]
   + x[247] + x[253] + x[268] + x[274] + x[364] + x[6] + x[33] + x[41]
   + x[47] + x[62] + x[220] + x[226] + x[241] + x[256] + x[262] + x[277]
   + x[283] + x[319] + x[367] + x[7] + x[34] + x[48] + x[54] + x[57]
   + x[142] + x[178] + x[298] + x[304] + x[307] + x[334] + x[340] + x[343]
   + x[370] + x[8] + x[35] + x[42] + x[51] + x[60] + x[214] + x[250]
   + x[292] + x[301] + x[310] + x[328] + x[337] + x[346] + x[373] + x[9]
   + x[36] + x[39] + x[45] + x[63] + x[286] + x[289] + x[295] + x[313]
   + x[322] + x[325] + x[331] + x[349] + x[376] + x[10] + x[64] + x[73]
   + x[76] + x[91] + x[209] + x[218] + x[221] + x[236] + x[281] + x[290]
   + x[293] + x[308] + x[353] + x[11] + x[65] + x[79] + x[82] + x[94]
   + x[137] + x[224] + x[227] + x[239] + x[296] + x[299] + x[311] + x[317]
   + x[356] + x[12] + x[66] + x[85] + x[88] + x[97] + x[173] + x[230]
   + x[233] + x[242] + x[245] + x[302] + x[305] + x[314] + x[359] + x[13]
   + x[67] + x[80] + x[86] + x[92] + x[152] + x[158] + x[164] + x[212]
   + x[284] + x[332] + x[338] + x[344] + x[362] + x[14] + x[68] + x[74]
   + x[89] + x[95] + x[140] + x[146] + x[161] + x[167] + x[320] + x[326]
   + x[341] + x[347] + x[365] + x[15] + x[69] + x[77] + x[83] + x[98]
   + x[149] + x[155] + x[170] + x[176] + x[248] + x[329] + x[335] + x[350]
   + x[368] + x[16] + x[70] + x[84] + x[90] + x[93] + x[191] + x[197]
   + x[200] + x[215] + x[263] + x[269] + x[272] + x[287] + x[371] + x[17]
   + x[71] + x[78] + x[87] + x[96] + x[143] + x[185] + x[194] + x[203]
   + x[257] + x[266] + x[275] + x[323] + x[374] + x[18] + x[72] + x[75]
   + x[81] + x[99] + x[179] + x[182] + x[188] + x[206] + x[251] + x[254]
   + x[260] + x[278] + x[377] + x[19] + x[100] + x[109] + x[112] + x[127]
   + x[246] + x[255] + x[258] + x[273] + x[318] + x[327] + x[330] + x[345]
   + x[354] + x[20] + x[101] + x[115] + x[118] + x[130] + x[174] + x[261]
   + x[264] + x[276] + x[282] + x[333] + x[336] + x[348] + x[357] + x[21]
   + x[102] + x[121] + x[124] + x[133] + x[138] + x[210] + x[267] + x[270]
   + x[279] + x[339] + x[342] + x[351] + x[360] + x[22] + x[103] + x[116]
   + x[122] + x[128] + x[189] + x[195] + x[201] + x[249] + x[297] + x[303]
   + x[309] + x[321] + x[363] + x[23] + x[104] + x[110] + x[125] + x[131]
   + x[177] + x[183] + x[198] + x[204] + x[285] + x[291] + x[306] + x[312]
   + x[366] + x[24] + x[105] + x[113] + x[119] + x[134] + x[141] + x[186]
   + x[192] + x[207] + x[213] + x[294] + x[300] + x[315] + x[369] + x[25]
   + x[106] + x[120] + x[126] + x[129] + x[156] + x[162] + x[165] + x[228]
   + x[234] + x[237] + x[252] + x[324] + x[372] + x[26] + x[107] + x[114]
   + x[123] + x[132] + x[150] + x[159] + x[168] + x[180] + x[222] + x[231]
   + x[240] + x[288] + x[375] + x[27] + x[108] + x[111] + x[117] + x[135]
   + x[144] + x[147] + x[153] + x[171] + x[216] + x[219] + x[225] + x[243]
   + x[378]
Subject To
 clq1: x[1] + x[163] <= 1
 clq2: x[2] + x[154] <= 1
 clq3: x[3] + x[193] <= 1
 clq4: x[4] + x[259] <= 1
 clq5: x[5] + x[38] <= 1
 clq6: x[6] + x[33] <= 1
 clq7: x[7] + x[34] <= 1
 clq8: x[8] + x[35] <= 1
 clq9: x[9] + x[289] <= 1
 clq10: x[10] + x[353] <= 1
 clq11: x[11] + x[65] <= 1
 clq12: x[12] + x[97] <= 1
 clq13: x[13] + x[67] <= 1
 clq14: x[14] + x[161] <= 1
 clq15: x[15] + x[98] <= 1
 clq16: x[16] + x[197] <= 1
 clq17: x[17] + x[257] <= 1
 clq18: x[18] + x[99] <= 1
 clq19: x[19] + x[258] <= 1
 clq20: x[20] + x[130] <= 1
 clq21: x[21] + x[133] <= 1
 clq22: x[22] + x[321] <= 1
 clq23: x[23] + x[131] <= 1
 clq24: x[24] + x[134] <= 1
 clq25: x[25] + x[129] <= 1
 clq26: x[26] + x[132] <= 1
 clq27: x[27] + x[225] <= 1
 clq28: x[1] + x[37] <= 1
 clq29: x[2] + x[355] <= 1
 clq30: x[3] + x[196] <= 1
 clq31: x[4] + x[229] <= 1
 clq32: x[5] + x[232] <= 1
 clq33: x[6] + x[226] <= 1
 clq34: x[7] + x[298] <= 1
 clq35: x[8] + x[292] <= 1
 clq36: x[9] + x[322] <= 1
 clq37: x[10] + x[290] <= 1
 clq38: x[11] + x[227] <= 1
 clq39: x[12] + x[66] <= 1
 clq40: x[13] + x[164] <= 1
 clq41: x[14] + x[68] <= 1
 clq42: x[15] + x[69] <= 1
 clq43: x[16] + x[70] <= 1
 clq44: x[17] + x[194] <= 1
 clq45: x[18] + x[260] <= 1
 clq46: x[19] + x[354] <= 1
 clq47: x[20] + x[261] <= 1
 clq48: x[21] + x[102] <= 1
 clq49: x[22] + x[195] <= 1
 clq50: x[23] + x[291] <= 1
 clq51: x[24] + x[294] <= 1
 clq52: x[25] + x[162] <= 1
 clq53: x[26] + x[231] <= 1
 clq54: x[27] + x[135] <= 1
 clq55: x[1] + x[199] <= 1
 clq56: x[2] + x[166] <= 1
 clq57: x[3] + x[358] <= 1
 clq58: x[4] + x[265] <= 1
 clq59: x[5] + x[268] <= 1
 clq60: x[6] + x[262] <= 1
 clq61: x[7] + x[142] <= 1
 clq62: x[8] + x[328] <= 1
 clq63: x[9] + x[36] <= 1
 clq64: x[10] + x[293] <= 1
 clq65: x[11] + x[356] <= 1
 clq66: x[12] + x[230] <= 1
 clq67: x[13] + x[362] <= 1
 clq68: x[14] + x[326] <= 1
 clq69: x[15] + x[329] <= 1
 clq70: x[16] + x[263] <= 1
 clq71: x[17] + x[323] <= 1
 clq72: x[18] + x[72] <= 1
 clq73: x[19] + x[100] <= 1
 clq74: x[20] + x[101] <= 1
 clq75: x[21] + x[360] <= 1
 clq76: x[22] + x[103] <= 1
 clq77: x[23] + x[198] <= 1
 clq78: x[24] + x[105] <= 1
 clq79: x[25] + x[228] <= 1
 clq80: x[26] + x[168] <= 1
 clq81: x[27] + x[171] <= 1
 clq82: x[1] + x[136] <= 1
 clq83: x[2] + x[202] <= 1
 clq84: x[3] + x[169] <= 1
 clq85: x[4] + x[361] <= 1
 clq86: x[5] + x[364] <= 1
 clq87: x[6] + x[41] <= 1
 clq88: x[7] + x[334] <= 1
 clq89: x[8] + x[346] <= 1
 clq90: x[9] + x[325] <= 1
 clq91: x[10] + x[73] <= 1
 clq92: x[11] + x[296] <= 1
 clq93: x[12] + x[359] <= 1
 clq94: x[13] + x[332] <= 1
 clq95: x[14] + x[167] <= 1
 clq96: x[15] + x[170] <= 1
 clq97: x[16] + x[200] <= 1
 clq98: x[17] + x[71] <= 1
 clq99: x[18] + x[75] <= 1
 clq100: x[19] + x[327] <= 1
 clq101: x[20] + x[357] <= 1
 clq102: x[21] + x[138] <= 1
 clq103: x[22] + x[201] <= 1
 clq104: x[23] + x[104] <= 1
 clq105: x[24] + x[300] <= 1
 clq106: x[25] + x[324] <= 1
 clq107: x[26] + x[107] <= 1
 clq108: x[27] + x[108] <= 1
 clq109: x[1] + x[40] <= 1
 clq110: x[2] + x[43] <= 1
 clq111: x[3] + x[205] <= 1
 clq112: x[4] + x[139] <= 1
 clq113: x[5] + x[238] <= 1
 clq114: x[6] + x[47] <= 1
 clq115: x[7] + x[304] <= 1
 clq116: x[8] + x[42] <= 1
 clq117: x[9] + x[295] <= 1
 clq118: x[10] + x[76] <= 1
 clq119: x[11] + x[137] <= 1
 clq120: x[12] + x[233] <= 1
 clq121: x[13] + x[80] <= 1
 clq122: x[14] + x[74] <= 1
 clq123: x[15] + x[77] <= 1
 clq124: x[16] + x[269] <= 1
 clq125: x[17] + x[266] <= 1
 clq126: x[18] + x[206] <= 1
 clq127: x[19] + x[330] <= 1
 clq128: x[20] + x[264] <= 1
 clq129: x[21] + x[267] <= 1
 clq130: x[22] + x[297] <= 1
 clq131: x[23] + x[204] <= 1
 clq132: x[24] + x[141] <= 1
 clq133: x[25] + x[165] <= 1
 clq134: x[26] + x[240] <= 1
 clq135: x[27] + x[111] <= 1
 clq136: x[1] + x[172] <= 1
 clq137: x[2] + x[46] <= 1
 clq138: x[3] + x[61] <= 1
 clq139: x[4] + x[235] <= 1
 clq140: x[5] + x[274] <= 1
 clq141: x[6] + x[367] <= 1
 clq142: x[7] + x[48] <= 1
 clq143: x[8] + x[301] <= 1
 clq144: x[9] + x[39] <= 1
 clq145: x[10] + x[236] <= 1
 clq146: x[11] + x[299] <= 1
 clq147: x[12] + x[173] <= 1
 clq148: x[13] + x[284] <= 1
 clq149: x[14] + x[140] <= 1
 clq150: x[15] + x[335] <= 1
 clq151: x[16] + x[272] <= 1
 clq152: x[17] + x[203] <= 1
 clq153: x[18] + x[81] <= 1
 clq154: x[19] + x[109] <= 1
 clq155: x[20] + x[333] <= 1
 clq156: x[21] + x[270] <= 1
 clq157: x[22] + x[363] <= 1
 clq158: x[23] + x[110] <= 1
 clq159: x[24] + x[207] <= 1
 clq160: x[25] + x[106] <= 1
 clq161: x[26] + x[114] <= 1
 clq162: x[27] + x[144] <= 1
 clq163: x[1] + x[145] <= 1
 clq164: x[2] + x[208] <= 1
 clq165: x[3] + x[49] <= 1
 clq166: x[4] + x[44] <= 1
 clq167: x[5] + x[211] <= 1
 clq168: x[6] + x[241] <= 1
 clq169: x[7] + x[178] <= 1
 clq170: x[8] + x[337] <= 1
 clq171: x[9] + x[331] <= 1
 clq172: x[10] + x[209] <= 1
 clq173: x[11] + x[239] <= 1
 clq174: x[12] + x[302] <= 1
 clq175: x[13] + x[338] <= 1
 clq176: x[14] + x[365] <= 1
 clq177: x[15] + x[176] <= 1
 clq178: x[16] + x[371] <= 1
 clq179: x[17] + x[78] <= 1
 clq180: x[18] + x[179] <= 1
 clq181: x[19] + x[112] <= 1
 clq182: x[20] + x[174] <= 1
 clq183: x[21] + x[210] <= 1
 clq184: x[22] + x[303] <= 1
 clq185: x[23] + x[366] <= 1
 clq186: x[24] + x[113] <= 1
 clq187: x[25] + x[234] <= 1
 clq188: x[26] + x[180] <= 1
 clq189: x[27] + x[147] <= 1
 clq190: x[1] + x[148] <= 1
 clq191: x[2] + x[244] <= 1
 clq192: x[3] + x[52] <= 1
 clq193: x[4] + x[175] <= 1
 clq194: x[5] + x[53] <= 1
 clq195: x[6] + x[277] <= 1
 clq196: x[7] + x[370] <= 1
 clq197: x[8] + x[51] <= 1
 clq198: x[9] + x[45] <= 1
 clq199: x[10] + x[308] <= 1
 clq200: x[11] + x[79] <= 1
 clq201: x[12] + x[305] <= 1
 clq202: x[13] + x[212] <= 1
 clq203: x[14] + x[146] <= 1
 clq204: x[15] + x[368] <= 1
 clq205: x[16] + x[84] <= 1
 clq206: x[17] + x[143] <= 1
 clq207: x[18] + x[278] <= 1
 clq208: x[19] + x[273] <= 1
 clq209: x[20] + x[336] <= 1
 clq210: x[21] + x[339] <= 1
 clq211: x[22] + x[116] <= 1
 clq212: x[23] + x[177] <= 1
 clq213: x[24] + x[369] <= 1
 clq214: x[25] + x[156] <= 1
 clq215: x[26] + x[150] <= 1
 clq216: x[27] + x[243] <= 1
 clq217: x[1] + x[181] <= 1
 clq218: x[2] + x[151] <= 1
 clq219: x[3] + x[280] <= 1
 clq220: x[4] + x[271] <= 1
 clq221: x[5] + x[247] <= 1
 clq222: x[6] + x[283] <= 1
 clq223: x[7] + x[307] <= 1
 clq224: x[8] + x[373] <= 1
 clq225: x[9] + x[376] <= 1
 clq226: x[10] + x[281] <= 1
 clq227: x[11] + x[82] <= 1
 clq228: x[12] + x[242] <= 1
 clq229: x[13] + x[86] <= 1
 clq230: x[14] + x[341] <= 1
 clq231: x[15] + x[83] <= 1
 clq232: x[16] + x[215] <= 1
 clq233: x[17] + x[275] <= 1
 clq234: x[18] + x[182] <= 1
 clq235: x[19] + x[246] <= 1
 clq236: x[20] + x[115] <= 1
 clq237: x[21] + x[342] <= 1
 clq238: x[22] + x[309] <= 1
 clq239: x[23] + x[306] <= 1
 clq240: x[24] + x[213] <= 1
 clq241: x[25] + x[237] <= 1
 clq242: x[26] + x[375] <= 1
 clq243: x[27] + x[117] <= 1
 clq244: x[1] + x[28] <= 1
 clq245: x[2] + x[58] <= 1
 clq246: x[3] + x[316] <= 1
 clq247: x[4] + x[50] <= 1
 clq248: x[5] + x[217] <= 1
 clq249: x[6] + x[220] <= 1
 clq250: x[7] + x[57] <= 1
 clq251: x[8] + x[310] <= 1
 clq252: x[9] + x[313] <= 1
 clq253: x[10] + x[218] <= 1
 clq254: x[11] + x[317] <= 1
 clq255: x[12] + x[314] <= 1
 clq256: x[13] + x[92] <= 1
 clq257: x[14] + x[89] <= 1
 clq258: x[15] + x[155] <= 1
 clq259: x[16] + x[90] <= 1
 clq260: x[17] + x[185] <= 1
 clq261: x[18] + x[377] <= 1
 clq262: x[19] + x[345] <= 1
 clq263: x[20] + x[282] <= 1
 clq264: x[21] + x[121] <= 1
 clq265: x[22] + x[249] <= 1
 clq266: x[23] + x[125] <= 1
 clq267: x[24] + x[186] <= 1
 clq268: x[25] + x[372] <= 1
 clq269: x[26] + x[123] <= 1
 clq270: x[27] + x[153] <= 1
 clq271: x[1] + x[352] <= 1
 clq272: x[55] + x[56] + x[57] <= 1
 clq273: x[1] + x[184] <= 1
 clq274: x[2] + x[187] <= 1
 clq275: x[28] + x[29] + x[30] <= 1
 clq276: x[190] + x[191] + x[192] <= 1
 clq277: x[3] + x[157] <= 1
 clq278: x[160] + x[161] + x[162] <= 1
 clq279: x[4] + x[223] <= 1
 clq280: x[31] + x[32] + x[33] <= 1
 clq281: x[5] + x[59] <= 1
 clq282: x[253] + x[254] + x[255] <= 1
 clq283: x[6] + x[62] <= 1
 clq284: x[256] + x[257] + x[258] <= 1
 clq285: x[319] + x[320] + x[321] <= 1
 clq286: x[7] + x[340] <= 1
 clq287: x[52] + x[53] + x[54] <= 1
 clq288: x[343] + x[344] + x[345] <= 1
 clq289: x[8] + x[250] <= 1
 clq290: x[58] + x[59] + x[60] <= 1
 clq291: x[214] + x[215] + x[216] <= 1
 clq292: x[9] + x[349] <= 1
 clq293: x[9] + x[63] <= 1
 clq294: x[286] + x[287] + x[288] <= 1
 clq295: x[10] + x[91] <= 1
 clq296: x[64] + x[65] + x[66] <= 1
 clq297: x[220] + x[221] + x[222] <= 1
 clq298: x[11] + x[94] <= 1
 clq299: x[223] + x[224] + x[225] <= 1
 clq300: x[310] + x[311] + x[312] <= 1
 clq301: x[12] + x[85] <= 1
 clq302: x[88] + x[89] + x[90] <= 1
 clq303: x[12] + x[245] <= 1
 clq304: x[13] + x[158] <= 1
 clq305: x[151] + x[152] + x[153] <= 1
 clq306: x[14] + x[347] <= 1
 clq307: x[94] + x[95] + x[96] <= 1
 clq308: x[15] + x[149] <= 1
 clq309: x[247] + x[248] + x[249] <= 1
 clq310: x[349] + x[350] + x[351] <= 1
 clq311: x[16] + x[93] <= 1
 clq312: x[17] + x[374] <= 1
 clq313: x[17] + x[87] <= 1
 clq314: x[18] + x[251] <= 1
 clq315: x[187] + x[188] + x[189] <= 1
 clq316: x[19] + x[318] <= 1
 clq317: x[127] + x[128] + x[129] <= 1
 clq318: x[20] + x[348] <= 1
 clq319: x[118] + x[119] + x[120] <= 1
 clq320: x[274] + x[275] + x[276] <= 1
 clq321: x[21] + x[124] <= 1
 clq322: x[21] + x[279] <= 1
 clq323: x[22] + x[122] <= 1
 clq324: x[23] + x[285] <= 1
 clq325: x[181] + x[182] + x[183] <= 1
 clq326: x[24] + x[315] <= 1
 clq327: x[25] + x[252] <= 1
 clq328: x[25] + x[126] <= 1
 clq329: x[26] + x[159] <= 1
 clq330: x[27] + x[378] <= 1
 clq331: x[217] + x[218] + x[219] <= 1
 clq332: x[37] + x[38] + x[39] <= 1
 clq333: x[40] + x[41] + x[42] <= 1
 clq334: x[136] + x[137] + x[138] <= 1
 clq335: x[145] + x[146] + x[147] <= 1
 clq336: x[148] + x[149] + x[150] <= 1
 clq337: x[163] + x[164] + x[165] <= 1
 clq338: x[172] + x[173] + x[174] <= 1
 clq339: x[184] + x[185] + x[186] <= 1
 clq340: x[199] + x[200] + x[201] <= 1
 clq341: x[352] + x[353] + x[354] <= 1
 clq342: x[2] + x[29] <= 1
 clq343: x[43] + x[44] + x[45] <= 1
 clq344: x[46] + x[47] + x[48] <= 1
 clq345: x[154] + x[155] + x[156] <= 1
 clq346: x[166] + x[167] + x[168] <= 1
 clq347: x[202] + x[203] + x[204] <= 1
 clq348: x[208] + x[209] + x[210] <= 1
 clq349: x[244] + x[245] + x[246] <= 1
 clq350: x[355] + x[356] + x[357] <= 1
 clq351: x[3] + x[30] <= 1
 clq352: x[49] + x[50] + x[51] <= 1
 clq353: x[61] + x[62] + x[63] <= 1
 clq354: x[157] + x[158] + x[159] <= 1
 clq355: x[169] + x[170] + x[171] <= 1
 clq356: x[193] + x[194] + x[195] <= 1
 clq357: x[196] + x[197] + x[198] <= 1
 clq358: x[205] + x[206] + x[207] <= 1
 clq359: x[280] + x[281] + x[282] <= 1
 clq360: x[316] + x[317] + x[318] <= 1
 clq361: x[358] + x[359] + x[360] <= 1
 clq362: x[4] + x[31] <= 1
 clq363: x[139] + x[140] + x[141] <= 1
 clq364: x[175] + x[176] + x[177] <= 1
 clq365: x[229] + x[230] + x[231] <= 1
 clq366: x[235] + x[236] + x[237] <= 1
 clq367: x[259] + x[260] + x[261] <= 1
 clq368: x[265] + x[266] + x[267] <= 1
 clq369: x[271] + x[272] + x[273] <= 1
 clq370: x[361] + x[362] + x[363] <= 1
 clq371: x[5] + x[253] <= 1
 clq372: x[211] + x[212] + x[213] <= 1
 clq373: x[232] + x[233] + x[234] <= 1
 clq374: x[238] + x[239] + x[240] <= 1
 clq375: x[268] + x[269] + x[270] <= 1
 clq376: x[364] + x[365] + x[366] <= 1
 clq377: x[6] + x[319] <= 1
 clq378: x[226] + x[227] + x[228] <= 1
 clq379: x[241] + x[242] + x[243] <= 1
 clq380: x[262] + x[263] + x[264] <= 1
 clq381: x[277] + x[278] + x[279] <= 1
 clq382: x[283] + x[284] + x[285] <= 1
 clq383: x[367] + x[368] + x[369] <= 1
 clq384: x[7] + x[54] <= 1
 clq385: x[34] + x[35] + x[36] <= 1
 clq386: x[142] + x[143] + x[144] <= 1
 clq387: x[178] + x[179] + x[180] <= 1
 clq388: x[298] + x[299] + x[300] <= 1
 clq389: x[304] + x[305] + x[306] <= 1
 clq390: x[307] + x[308] + x[309] <= 1
 clq391: x[334] + x[335] + x[336] <= 1
 clq392: x[340] + x[341] + x[342] <= 1
 clq393: x[370] + x[371] + x[372] <= 1
 clq394: x[8] + x[60] <= 1
 clq395: x[250] + x[251] + x[252] <= 1
 clq396: x[292] + x[293] + x[294] <= 1
 clq397: x[301] + x[302] + x[303] <= 1
 clq398: x[328] + x[329] + x[330] <= 1
 clq399: x[337] + x[338] + x[339] <= 1
 clq400: x[346] + x[347] + x[348] <= 1
 clq401: x[373] + x[374] + x[375] <= 1
 clq402: x[289] + x[290] + x[291] <= 1
 clq403: x[295] + x[296] + x[297] <= 1
 clq404: x[313] + x[314] + x[315] <= 1
 clq405: x[322] + x[323] + x[324] <= 1
 clq406: x[325] + x[326] + x[327] <= 1
 clq407: x[331] + x[332] + x[333] <= 1
 clq408: x[376] + x[377] + x[378] <= 1
 clq409: x[10] + x[221] <= 1
 clq410: x[73] + x[74] + x[75] <= 1
 clq411: x[76] + x[77] + x[78] <= 1
 clq412: x[91] + x[92] + x[93] <= 1
 clq413: x[11] + x[311] <= 1
 clq414: x[79] + x[80] + x[81] <= 1
 clq415: x[82] + x[83] + x[84] <= 1
 clq416: x[85] + x[86] + x[87] <= 1
 clq417: x[97] + x[98] + x[99] <= 1
 clq418: x[13] + x[344] <= 1
 clq419: x[67] + x[68] + x[69] <= 1
 clq420: x[14] + x[95] <= 1
 clq421: x[15] + x[350] <= 1
 clq422: x[16] + x[191] <= 1
 clq423: x[70] + x[71] + x[72] <= 1
 clq424: x[18] + x[188] <= 1
 clq425: x[19] + x[127] <= 1
 clq426: x[100] + x[101] + x[102] <= 1
 clq427: x[109] + x[110] + x[111] <= 1
 clq428: x[112] + x[113] + x[114] <= 1
 clq429: x[20] + x[276] <= 1
 clq430: x[115] + x[116] + x[117] <= 1
 clq431: x[130] + x[131] + x[132] <= 1
 clq432: x[121] + x[122] + x[123] <= 1
 clq433: x[124] + x[125] + x[126] <= 1
 clq434: x[133] + x[134] + x[135] <= 1
 clq435: x[22] + x[189] <= 1
 clq436: x[103] + x[104] + x[105] <= 1
 clq437: x[23] + x[183] <= 1
 clq438: x[24] + x[119] <= 1
 clq439: x[106] + x[107] + x[108] <= 1
 clq440: x[26] + x[222] <= 1
 clq441: x[27] + x[219] <= 1
 clq442: x[1] + x[55] <= 1
 clq443: x[2] + x[190] <= 1
 clq444: x[3] + x[160] <= 1
 clq445: x[4] + x[56] <= 1
 clq446: x[5] + x[32] <= 1
 clq447: x[6] + x[256] <= 1
 clq448: x[7] + x[343] <= 1
 clq449: x[8] + x[214] <= 1
 clq450: x[9] + x[286] <= 1
 clq451: x[10] + x[64] <= 1
 clq452: x[11] + x[224] <= 1
 clq453: x[12] + x[88] <= 1
 clq454: x[13] + x[152] <= 1
 clq455: x[14] + x[320] <= 1
 clq456: x[15] + x[248] <= 1
 clq457: x[16] + x[287] <= 1
 clq458: x[17] + x[96] <= 1
 clq459: x[18] + x[254] <= 1
 clq460: x[19] + x[255] <= 1
 clq461: x[20] + x[118] <= 1
 clq462: x[21] + x[351] <= 1
 clq463: x[22] + x[128] <= 1
 clq464: x[23] + x[312] <= 1
 clq465: x[24] + x[192] <= 1
 clq466: x[25] + x[120] <= 1
 clq467: x[26] + x[288] <= 1
 clq468: x[27] + x[216] <= 1
Bounds
Binaries
 x[1] x[28] x[37] x[40] x[55] x[136] x[145] x[148] x[163] x[172] x[181]
 x[184] x[199] x[352] x[2] x[29] x[43] x[46] x[58] x[151] x[154] x[166]
 x[187] x[190] x[202] x[208] x[244] x[355] x[3] x[30] x[49] x[52] x[61]
 x[157] x[160] x[169] x[193] x[196] x[205] x[280] x[316] x[358] x[4] x[31]
 x[44] x[50] x[56] x[139] x[175] x[223] x[229] x[235] x[259] x[265] x[271]
 x[361] x[5] x[32] x[38] x[53] x[59] x[211] x[217] x[232] x[238] x[247]
 x[253] x[268] x[274] x[364] x[6] x[33] x[41] x[47] x[62] x[220] x[226]
 x[241] x[256] x[262] x[277] x[283] x[319] x[367] x[7] x[34] x[48] x[54]
 x[57] x[142] x[178] x[298] x[304] x[307] x[334] x[340] x[343] x[370] x[8]
 x[35] x[42] x[51] x[60] x[214] x[250] x[292] x[301] x[310] x[328] x[337]
 x[346] x[373] x[9] x[36] x[39] x[45] x[63] x[286] x[289] x[295] x[313]
 x[322] x[325] x[331] x[349] x[376] x[10] x[64] x[73] x[76] x[91] x[209]
 x[218] x[221] x[236] x[281] x[290] x[293] x[308] x[353] x[11] x[65] x[79]
 x[82] x[94] x[137] x[224] x[227] x[239] x[296] x[299] x[311] x[317] x[356]
 x[12] x[66] x[85] x[88] x[97] x[173] x[230] x[233] x[242] x[245] x[302]
 x[305] x[314] x[359] x[13] x[67] x[80] x[86] x[92] x[152] x[158] x[164]
 x[212] x[284] x[332] x[338] x[344] x[362] x[14] x[68] x[74] x[89] x[95]
 x[140] x[146] x[161] x[167] x[320] x[326] x[341] x[347] x[365] x[15] x[69]
 x[77] x[83] x[98] x[149] x[155] x[170] x[176] x[248] x[329] x[335] x[350]
 x[368] x[16] x[70] x[84] x[90] x[93] x[191] x[197] x[200] x[215] x[263]
 x[269] x[272] x[287] x[371] x[17] x[71] x[78] x[87] x[96] x[143] x[185]
 x[194] x[203] x[257] x[266] x[275] x[323] x[374] x[18] x[72] x[75] x[81]
 x[99] x[179] x[182] x[188] x[206] x[251] x[254] x[260] x[278] x[377] x[19]
 x[100] x[109] x[112] x[127] x[246] x[255] x[258] x[273] x[318] x[327]
 x[330] x[345] x[354] x[20] x[101] x[115] x[118] x[130] x[174] x[261]
 x[264] x[276] x[282] x[333] x[336] x[348] x[357] x[21] x[102] x[121]
 x[124] x[133] x[138] x[210] x[267] x[270] x[279] x[339] x[342] x[351]
 x[360] x[22] x[103] x[116] x[122] x[128] x[189] x[195] x[201] x[249]
 x[297] x[303] x[309] x[321] x[363] x[23] x[104] x[110] x[125] x[131]
 x[177] x[183] x[198] x[204] x[285] x[291] x[306] x[312] x[366] x[24]
 x[105] x[113] x[119] x[134] x[141] x[186] x[192] x[207] x[213] x[294]
 x[300] x[315] x[369] x[25] x[106] x[120] x[126] x[129] x[156] x[162]
 x[165] x[228] x[234] x[237] x[252] x[324] x[372] x[26] x[107] x[114]
 x[123] x[132] x[150] x[159] x[168] x[180] x[222] x[231] x[240] x[288]
 x[375] x[27] x[108] x[111] x[117] x[135] x[144] x[147] x[153] x[171]
 x[216] x[219] x[225] x[243] x[378]
End
